c colouring generated by benchmark framework
p edge 427 8967
v 1 0
v 2 16
v 3 16
v 4 4
v 5 1
v 6 9
v 7 15
v 8 7
v 9 3
v 10 18
v 11 19
v 12 12
v 13 13
v 14 12
v 15 17
v 16 16
v 17 10
v 18 19
v 19 10
v 20 10
v 21 5
v 22 2
v 23 11
v 24 9
v 25 8
v 26 12
v 27 4
v 28 6
v 29 20
v 30 7
v 31 8
v 32 1
v 33 14
v 34 11
v 35 11
v 36 12
v 37 7
v 38 18
v 39 17
v 40 19
v 41 17
v 42 20
v 43 13
v 44 0
v 45 14
v 46 3
v 47 19
v 48 15
v 49 5
v 50 1
v 51 13
v 52 16
v 53 8
v 54 4
v 55 5
v 56 2
v 57 2
v 58 11
v 59 7
v 60 4
v 61 7
v 62 3
v 63 12
v 64 15
v 65 19
v 66 20
v 67 9
v 68 14
v 69 9
v 70 10
v 71 18
v 72 20
v 73 13
v 74 2
v 75 6
v 76 6
v 77 15
v 78 0
v 79 11
v 80 5
v 81 5
v 82 8
v 83 2
v 84 16
v 85 0
v 86 7
v 87 13
v 88 12
v 89 8
v 90 19
v 91 14
v 92 3
v 93 18
v 94 14
v 95 10
v 96 11
v 97 4
v 98 4
v 99 10
v 100 15
v 101 7
v 102 17
v 103 17
v 104 5
v 105 5
v 106 2
v 107 16
v 108 2
v 109 20
v 110 14
v 111 12
v 112 19
v 113 13
v 114 5
v 115 6
v 116 2
v 117 13
v 118 6
v 119 3
v 120 6
v 121 4
v 122 4
v 123 12
v 124 8
v 125 9
v 126 20
v 127 11
v 128 7
v 129 0
v 130 1
v 131 16
v 132 15
v 133 15
v 134 14
v 135 6
v 136 10
v 137 20
v 138 19
v 139 8
v 140 20
v 141 3
v 142 14
v 143 13
v 144 2
v 145 17
v 146 4
v 147 18
v 148 13
v 149 16
v 150 1
v 151 0
v 152 9
v 153 10
v 154 1
v 155 12
v 156 11
v 157 7
v 158 18
v 159 0
v 160 10
v 161 6
v 162 8
v 163 1
v 164 19
v 165 5
v 166 3
v 167 17
v 168 20
v 169 4
v 170 18
v 171 12
v 172 13
v 173 12
v 174 19
v 175 9
v 176 14
v 177 6
v 178 6
v 179 16
v 180 1
v 181 2
v 182 0
v 183 10
v 184 15
v 185 11
v 186 11
v 187 9
v 188 18
v 189 5
v 190 3
v 191 17
v 192 13
v 193 20
v 194 8
v 195 20
v 196 10
v 197 19
v 198 20
v 199 15
v 200 7
v 201 4
v 202 2
v 203 5
v 204 6
v 205 18
v 206 0
v 207 9
v 208 16
v 209 4
v 210 20
v 211 5
v 212 18
v 213 6
v 214 14
v 215 2
v 216 13
v 217 17
v 218 12
v 219 16
v 220 11
v 221 7
v 222 9
v 223 1
v 224 20
v 225 3
v 226 15
v 227 16
v 228 3
v 229 1
v 230 10
v 231 2
v 232 4
v 233 15
v 234 4
v 235 6
v 236 5
v 237 6
v 238 13
v 239 11
v 240 0
v 241 12
v 242 5
v 243 14
v 244 2
v 245 19
v 246 0
v 247 17
v 248 5
v 249 18
v 250 8
v 251 13
v 252 9
v 253 10
v 254 10
v 255 14
v 256 20
v 257 1
v 258 16
v 259 3
v 260 4
v 261 11
v 262 1
v 263 6
v 264 15
v 265 16
v 266 17
v 267 20
v 268 19
v 269 2
v 270 7
v 271 5
v 272 2
v 273 7
v 274 9
v 275 17
v 276 13
v 277 0
v 278 16
v 279 14
v 280 7
v 281 12
v 282 13
v 283 9
v 284 3
v 285 5
v 286 18
v 287 4
v 288 6
v 289 0
v 290 12
v 291 20
v 292 19
v 293 0
v 294 12
v 295 1
v 296 2
v 297 2
v 298 3
v 299 16
v 300 11
v 301 1
v 302 15
v 303 15
v 304 20
v 305 17
v 306 13
v 307 3
v 308 18
v 309 9
v 310 7
v 311 0
v 312 9
v 313 5
v 314 16
v 315 11
v 316 8
v 317 14
v 318 10
v 319 4
v 320 2
v 321 4
v 322 12
v 323 6
v 324 3
v 325 19
v 326 14
v 327 19
v 328 0
v 329 20
v 330 17
v 331 19
v 332 13
v 333 15
v 334 7
v 335 13
v 336 8
v 337 18
v 338 15
v 339 6
v 340 18
v 341 2
v 342 11
v 343 20
v 344 11
v 345 11
v 346 2
v 347 12
v 348 14
v 349 3
v 350 10
v 351 9
v 352 5
v 353 19
v 354 17
v 355 4
v 356 19
v 357 12
v 358 20
v 359 1
v 360 8
v 361 8
v 362 15
v 363 7
v 364 7
v 365 6
v 366 16
v 367 18
v 368 1
v 369 11
v 370 0
v 371 2
v 372 15
v 373 3
v 374 13
v 375 6
v 376 13
v 377 4
v 378 14
v 379 14
v 380 5
v 381 9
v 382 19
v 383 1
v 384 4
v 385 19
v 386 8
v 387 7
v 388 8
v 389 10
v 390 17
v 391 18
v 392 18
v 393 1
v 394 6
v 395 9
v 396 2
v 397 3
v 398 13
v 399 2
v 400 4
v 401 11
v 402 15
v 403 15
v 404 20
v 405 5
v 406 13
v 407 9
v 408 12
v 409 17
v 410 10
v 411 13
v 412 3
v 413 7
v 414 19
v 415 18
v 416 14
v 417 3
v 418 0
v 419 18
v 420 8
v 421 2
v 422 5
v 423 20
v 424 8
v 425 20
v 426 6
v 427 2
